12
0 16 12 16 12 8 3 1 19 4 19 12
20 0 17 14 16 18 13 3 2 18 1 10
2 8 0 13 19 14 9 10 8 9 18 9
18 15 20 0 13 7 12 2 4 14 11 12
1 10 17 2 0 11 9 6 3 10 3 12
18 11 3 19 8 0 3 11 1 7 10 3
17 6 3 19 5 13 0 20 1 15 9 3
4 9 6 9 8 12 9 0 13 20 17 20
17 8 20 19 3 15 13 9 0 17 14 17
10 6 6 3 3 18 20 19 8 0 17 15
9 6 13 3 16 3 9 6 11 3 0 2
8 11 13 8 3 7 14 20 2 3 3 0